<number of tasks>
20

<cycle time>
1000

<order strength>
0,184


<task times>
1 149
2 66
3 49
4 88
5 139
6 73
7 280
8 60
9 285
10 70
11 614
12 234
13 112
14 534
15 116
16 91
17 573
18 204
19 525
20 423

<precedence relations>
1,6
1,8
2,7
2,9
6,10
7,11
8,12
9,13
9,14
10,15
11,16
12,17
15,18
16,20
17,19

<end>
